# Solution for model probrema
# Objective value = 2.2740266951299954e+05
supply_0_port_20 0
supply_0_port_21 0
supply_0_port_22 0
supply_0_port_23 0
supply_0_port_24 0
supply_0_port_25 0
supply_0_port_26 0
supply_0_port_27 0
supply_0_port_28 0
supply_0_port_29 0
supply_1_port_20 0
supply_1_port_21 0
supply_1_port_22 0
supply_1_port_23 0
supply_1_port_24 0
supply_1_port_25 0
supply_1_port_26 0
supply_1_port_27 0
supply_1_port_28 0
supply_1_port_29 0
supply_2_port_20 0
supply_2_port_21 0
supply_2_port_22 0
supply_2_port_23 0
supply_2_port_24 0
supply_2_port_25 0
supply_2_port_26 0
supply_2_port_27 0
supply_2_port_28 0
supply_2_port_29 0
supply_3_port_20 0
supply_3_port_21 0
supply_3_port_22 0
supply_3_port_23 0
supply_3_port_24 0
supply_3_port_25 0
supply_3_port_26 0
supply_3_port_27 0
supply_3_port_28 0
supply_3_port_29 0
supply_4_port_20 0
supply_4_port_21 0
supply_4_port_22 0
supply_4_port_23 0
supply_4_port_24 0
supply_4_port_25 0
supply_4_port_26 0
supply_4_port_27 0
supply_4_port_28 0
supply_4_port_29 0
supply_5_port_20 0
supply_5_port_21 0
supply_5_port_22 0
supply_5_port_23 0
supply_5_port_24 0
supply_5_port_25 0
supply_5_port_26 0
supply_5_port_27 0
supply_5_port_28 0
supply_5_port_29 0
supply_6_port_20 0
supply_6_port_21 0
supply_6_port_22 0
supply_6_port_23 0
supply_6_port_24 0
supply_6_port_25 0
supply_6_port_26 0
supply_6_port_27 0
supply_6_port_28 0
supply_6_port_29 0
supply_7_port_20 0
supply_7_port_21 0
supply_7_port_22 0
supply_7_port_23 0
supply_7_port_24 0
supply_7_port_25 0
supply_7_port_26 0
supply_7_port_27 0
supply_7_port_28 0
supply_7_port_29 198
supply_8_port_20 0
supply_8_port_21 0
supply_8_port_22 0
supply_8_port_23 0
supply_8_port_24 0
supply_8_port_25 0
supply_8_port_26 0
supply_8_port_27 0
supply_8_port_28 0
supply_8_port_29 0
supply_9_port_20 0
supply_9_port_21 0
supply_9_port_22 0
supply_9_port_23 0
supply_9_port_24 0
supply_9_port_25 0
supply_9_port_26 0
supply_9_port_27 0
supply_9_port_28 0
supply_9_port_29 0
supply_0_tranship_10 180
supply_0_tranship_11 0
supply_0_tranship_12 0
supply_0_tranship_13 0
supply_0_tranship_14 0
supply_0_tranship_15 0
supply_0_tranship_16 671
supply_0_tranship_17 0
supply_0_tranship_18 0
supply_0_tranship_19 0
supply_1_tranship_10 0
supply_1_tranship_11 630
supply_1_tranship_12 0
supply_1_tranship_13 0
supply_1_tranship_14 0
supply_1_tranship_15 0
supply_1_tranship_16 0
supply_1_tranship_17 0
supply_1_tranship_18 0
supply_1_tranship_19 0
supply_2_tranship_10 62
supply_2_tranship_11 470
supply_2_tranship_12 0
supply_2_tranship_13 0
supply_2_tranship_14 0
supply_2_tranship_15 0
supply_2_tranship_16 0
supply_2_tranship_17 0
supply_2_tranship_18 0
supply_2_tranship_19 0
supply_3_tranship_10 0
supply_3_tranship_11 0
supply_3_tranship_12 0
supply_3_tranship_13 0
supply_3_tranship_14 0
supply_3_tranship_15 0
supply_3_tranship_16 0
supply_3_tranship_17 0
supply_3_tranship_18 0
supply_3_tranship_19 467
supply_4_tranship_10 0
supply_4_tranship_11 278
supply_4_tranship_12 0
supply_4_tranship_13 0
supply_4_tranship_14 0
supply_4_tranship_15 0
supply_4_tranship_16 0
supply_4_tranship_17 0
supply_4_tranship_18 0
supply_4_tranship_19 0
supply_5_tranship_10 0
supply_5_tranship_11 0
supply_5_tranship_12 0
supply_5_tranship_13 0
supply_5_tranship_14 0
supply_5_tranship_15 0
supply_5_tranship_16 159
supply_5_tranship_17 0
supply_5_tranship_18 0
supply_5_tranship_19 0
supply_6_tranship_10 0
supply_6_tranship_11 116
supply_6_tranship_12 0
supply_6_tranship_13 0
supply_6_tranship_14 0
supply_6_tranship_15 0
supply_6_tranship_16 0
supply_6_tranship_17 0
supply_6_tranship_18 0
supply_6_tranship_19 0
supply_7_tranship_10 0
supply_7_tranship_11 108
supply_7_tranship_12 0
supply_7_tranship_13 442
supply_7_tranship_14 0
supply_7_tranship_15 0
supply_7_tranship_16 0
supply_7_tranship_17 0
supply_7_tranship_18 0
supply_7_tranship_19 0
supply_8_tranship_10 617
supply_8_tranship_11 0
supply_8_tranship_12 0
supply_8_tranship_13 0
supply_8_tranship_14 0
supply_8_tranship_15 0
supply_8_tranship_16 0
supply_8_tranship_17 0
supply_8_tranship_18 0
supply_8_tranship_19 0
supply_9_tranship_10 0
supply_9_tranship_11 473
supply_9_tranship_12 0
supply_9_tranship_13 0
supply_9_tranship_14 0
supply_9_tranship_15 0
supply_9_tranship_16 0
supply_9_tranship_17 0
supply_9_tranship_18 0
supply_9_tranship_19 0
tranship_10_port_20 0
tranship_11_port_20 0
tranship_12_port_20 0
tranship_13_port_20 0
tranship_14_port_20 0
tranship_15_port_20 0
tranship_16_port_20 0
tranship_17_port_20 0
tranship_18_port_20 0
tranship_19_port_20 0
tranship_10_port_21 0
tranship_11_port_21 0
tranship_12_port_21 0
tranship_13_port_21 0
tranship_14_port_21 0
tranship_15_port_21 0
tranship_16_port_21 0
tranship_17_port_21 0
tranship_18_port_21 0
tranship_19_port_21 0
tranship_10_port_22 859
tranship_11_port_22 1500
tranship_12_port_22 0
tranship_13_port_22 0
tranship_14_port_22 0
tranship_15_port_22 0
tranship_16_port_22 830
tranship_17_port_22 0
tranship_18_port_22 0
tranship_19_port_22 0
tranship_10_port_23 0
tranship_11_port_23 0
tranship_12_port_23 0
tranship_13_port_23 0
tranship_14_port_23 0
tranship_15_port_23 0
tranship_16_port_23 0
tranship_17_port_23 0
tranship_18_port_23 0
tranship_19_port_23 0
tranship_10_port_24 0
tranship_11_port_24 0
tranship_12_port_24 0
tranship_13_port_24 0
tranship_14_port_24 0
tranship_15_port_24 0
tranship_16_port_24 0
tranship_17_port_24 0
tranship_18_port_24 0
tranship_19_port_24 0
tranship_10_port_25 0
tranship_11_port_25 575
tranship_12_port_25 0
tranship_13_port_25 393
tranship_14_port_25 0
tranship_15_port_25 0
tranship_16_port_25 0
tranship_17_port_25 0
tranship_18_port_25 0
tranship_19_port_25 0
tranship_10_port_26 0
tranship_11_port_26 0
tranship_12_port_26 0
tranship_13_port_26 0
tranship_14_port_26 0
tranship_15_port_26 0
tranship_16_port_26 0
tranship_17_port_26 0
tranship_18_port_26 0
tranship_19_port_26 0
tranship_10_port_27 0
tranship_11_port_27 0
tranship_12_port_27 0
tranship_13_port_27 0
tranship_14_port_27 0
tranship_15_port_27 0
tranship_16_port_27 0
tranship_17_port_27 0
tranship_18_port_27 0
tranship_19_port_27 0
tranship_10_port_28 0
tranship_11_port_28 0
tranship_12_port_28 0
tranship_13_port_28 0
tranship_14_port_28 0
tranship_15_port_28 0
tranship_16_port_28 0
tranship_17_port_28 0
tranship_18_port_28 0
tranship_19_port_28 0
tranship_10_port_29 0
tranship_11_port_29 0
tranship_12_port_29 0
tranship_13_port_29 49
tranship_14_port_29 0
tranship_15_port_29 0
tranship_16_port_29 0
tranship_17_port_29 0
tranship_18_port_29 0
tranship_19_port_29 467
X_20_30 0
X_20_31 0
X_20_32 0
X_20_33 0
X_20_34 0
X_20_35 0
X_20_36 0
X_20_37 0
X_20_38 0
X_20_39 0
X_21_30 0
X_21_31 0
X_21_32 0
X_21_33 0
X_21_34 0
X_21_35 0
X_21_36 0
X_21_37 0
X_21_38 0
X_21_39 0
X_22_30 1556
X_22_31 455
X_22_32 722
X_22_33 0
X_22_34 0
X_22_35 0
X_22_36 456
X_22_37 0
X_22_38 0
X_22_39 0
X_23_30 0
X_23_31 0
X_23_32 0
X_23_33 0
X_23_34 0
X_23_35 0
X_23_36 0
X_23_37 0
X_23_38 0
X_23_39 0
X_24_30 0
X_24_31 0
X_24_32 0
X_24_33 0
X_24_34 0
X_24_35 0
X_24_36 0
X_24_37 0
X_24_38 0
X_24_39 0
X_25_30 968
X_25_31 0
X_25_32 0
X_25_33 0
X_25_34 0
X_25_35 0
X_25_36 0
X_25_37 0
X_25_38 0
X_25_39 0
X_26_30 0
X_26_31 0
X_26_32 0
X_26_33 0
X_26_34 0
X_26_35 0
X_26_36 0
X_26_37 0
X_26_38 0
X_26_39 0
X_27_30 0
X_27_31 0
X_27_32 0
X_27_33 0
X_27_34 0
X_27_35 0
X_27_36 0
X_27_37 0
X_27_38 0
X_27_39 0
X_28_30 0
X_28_31 0
X_28_32 0
X_28_33 0
X_28_34 0
X_28_35 0
X_28_36 0
X_28_37 0
X_28_38 0
X_28_39 0
X_29_30 714
X_29_31 0
X_29_32 0
X_29_33 0
X_29_34 0
X_29_35 0
X_29_36 0
X_29_37 0
X_29_38 0
X_29_39 0
